interval = 15;
days = 7;
demand = [9,9,9,9,9,9,9,9,9,9,9,9,9,9,8,8,8,8,8,8,8,6,6,6,3,3,8,12,12,10,10,10,10,10,10,11,11,11,11,16,16,16,16,16,21,26,26,26,28,28,28,24,24,29,29,29,34,34,34,34,34,38,38,38,41,41,36,35,34,34,34,34,34,32,32,32,27,27,27,22,22,24,24,19,19,14,14,14,18,18,13,13,10,6,6,6,9,9,9,9,9,9,9,9,9,9,9,9,9,9,9,9,9,9,9,9,9,7,7,7,4,4,5,9,14,11,11,11,11,11,11,12,12,12,12,17,17,17,17,17,22,27,27,27,31,31,31,27,27,32,32,32,37,37,37,37,37,36,36,36,39,39,38,37,36,36,36,36,36,32,32,32,27,27,27,22,22,24,24,19,19,14,14,14,18,18,13,13,10,6,6,6,9,9,9,9,9,9,9,9,9,9,9,9,9,9,9,9,9,9,9,9,9,7,7,7,4,4,5,9,9,6,6,6,6,6,6,7,7,7,7,12,12,12,12,12,17,22,22,22,26,26,26,22,22,27,27,27,32,32,32,32,32,36,36,36,39,39,38,37,36,36,36,36,36,32,32,32,27,27,27,22,22,24,24,19,19,14,14,14,17,17,12,12,9,5,5,5,8,8,8,8,8,8,8,8,8,8,8,8,8,8,8,8,8,8,8,8,8,6,6,6,3,3,4,8,8,6,6,6,6,6,6,7,7,7,7,12,12,12,12,12,17,22,22,22,28,28,28,24,24,25,25,25,30,30,30,30,30,34,34,34,37,37,36,35,34,34,34,34,34,30,30,30,25,25,25,20,20,22,22,17,17,16,16,14,18,18,13,13,10,6,6,6,9,9,9,9,9,9,9,9,9,9,9,9,9,9,9,9,9,9,9,9,9,7,7,7,4,4,5,9,9,6,6,6,6,6,6,7,7,7,7,12,12,12,12,12,17,22,22,22,26,26,26,22,22,27,27,27,32,32,32,32,32,36,36,36,39,39,38,37,36,36,36,36,36,32,32,32,27,27,27,22,22,24,24,19,19,14,14,14,18,18,13,13,10,6,6,6,9,9,9,9,9,9,9,9,9,9,9,9,9,9,9,9,9,9,9,9,9,7,7,7,4,5,6,10,15,13,13,13,13,13,13,15,15,15,15,15,15,15,15,15,15,16,16,16,24,24,24,20,20,25,25,25,27,26,26,26,26,25,25,25,30,30,29,27,25,25,25,25,25,21,21,21,20,20,20,20,20,22,22,22,25,20,20,16,20,20,18,18,13,9,9,9,17,17,17,17,17,17,17,17,17,17,17,17,17,17,14,14,14,14,14,14,14,12,12,12,9,10,12,16,21,19,19,19,19,19,19,16,16,16,16,18,18,18,18,18,18,19,19,19,25,25,25,21,21,26,26,26,28,27,27,27,27,26,26,26,31,31,29,27,25,25,25,25,25,21,21,21,20,20,20,18,18,20,20,20,21,16,16,14,17,17,15,15,10,6,6,6];
shiftTypes = 4;
minStart = [20, 36, 52, 84];
maxStart = [32, 44, 60, 92];
minLength = [28, 28, 28, 28];
maxLength = [36, 36, 36, 36];
minDuties = 4.8;
maxDuties = 5;
avgMinutes = 2280;
weightUnderCover = 1;
weightOverCover = 1;
weightDutiesPerWeek = 0;
weightShiftInstances = 15;
